************************************************************************
file with basedata            : mf8_.bas
initial value random generator: 1775420031
************************************************************************
projects                      :  1
jobs (incl. supersource/sink ):  32
horizon                       :  239
RESOURCES
  - renewable                 :  2   R
  - nonrenewable              :  2   N
  - doubly constrained        :  0   D
************************************************************************
PROJECT INFORMATION:
pronr.  #jobs rel.date duedate tardcost  MPM-Time
    1     30      0       28       16       28
************************************************************************
PRECEDENCE RELATIONS:
jobnr.    #modes  #successors   successors
   1        1          3           2   3   4
   2        3          1          19
   3        3          3           6   7  13
   4        3          3           5  13  16
   5        3          3          10  14  23
   6        3          3          20  26  31
   7        3          3           8   9  11
   8        3          2          14  15
   9        3          1          26
  10        3          2          28  29
  11        3          3          12  16  30
  12        3          2          18  22
  13        3          3          17  21  23
  14        3          2          21  22
  15        3          2          19  31
  16        3          1          22
  17        3          3          20  24  25
  18        3          1          23
  19        3          2          20  27
  20        3          2          29  30
  21        3          2          25  26
  22        3          1          24
  23        3          1          24
  24        3          1          31
  25        3          1          27
  26        3          2          27  29
  27        3          1          28
  28        3          1          30
  29        3          1          32
  30        3          1          32
  31        3          1          32
  32        1          0        
************************************************************************
REQUESTS/DURATIONS:
jobnr. mode duration  R 1  R 2  N 1  N 2
------------------------------------------------------------------------
  1      1     0       0    0    0    0
  2      1     3       6    5    6    0
         2     7       6    5    0    5
         3    10       5    5    4    0
  3      1     4       6    4    6    0
         2     6       5    4    6    0
         3     6       6    1    0    2
  4      1     1       9    7    0    5
         2     3       6    7    9    0
         3     7       6    7    6    0
  5      1     3       8    4    0    7
         2     5       6    3    3    0
         3     8       3    3    0    6
  6      1     4       7    7    4    0
         2     7       6    7    0    4
         3    10       5    5    4    0
  7      1     1       3    7    0    6
         2     4       2    6    4    0
         3    10       2    5    4    0
  8      1     2       8    2    8    0
         2     3       8    1    0   10
         3     4       7    1    0    9
  9      1     5       7    6    3    0
         2     9       6    4    3    0
         3    10       3    3    0    2
 10      1     2      10   10    0    5
         2     7       8   10    4    0
         3    10       5    9    4    0
 11      1     2       8    9    0    6
         2     6       8    5    0    6
         3    10       8    2    0    3
 12      1     4       5   10    0    8
         2     7       5    8    7    0
         3     7       4    9    6    0
 13      1     1       9    9    6    0
         2     5       7    8    5    0
         3    10       5    8    3    0
 14      1     1       3    4    0    9
         2     3       2    4    0    5
         3    10       1    4    9    0
 15      1     3       9    7    0    2
         2     3       9    6    0    9
         3     5       9    4    1    0
 16      1     2       6    8    0    1
         2     3       6    7    5    0
         3     4       6    5    2    0
 17      1     1       3    9    8    0
         2     1       4    9    0    4
         3     4       3    8    0    4
 18      1     2       9    2    0    5
         2     4       9    2    7    0
         3     5       8    1    0    5
 19      1     8       7    6    0    7
         2    10       4    6    0    6
         3    10       6    4    0    6
 20      1     1       6    9    0    5
         2     3       5    8    0    4
         3     9       3    6    4    0
 21      1     2       5    3    0    4
         2     6       4    1    2    0
         3     6       1    1    0    4
 22      1     2       5    9    6    0
         2     6       4    6    6    0
         3     8       3    2    0    8
 23      1     4       8    7    6    0
         2     6       8    6    5    0
         3     9       7    4    2    0
 24      1     5       7   10    0    4
         2     6       6    9    2    0
         3     7       6    6    0    3
 25      1     3       9    6    0    4
         2     9       8    4    8    0
         3    10       8    4    0    3
 26      1     5       2    9    0    3
         2     7       2    9    9    0
         3    10       1    8    0    3
 27      1     5       8    4   10    0
         2     6       8    4    9    0
         3     7       7    4    9    0
 28      1     1       7    7    5    0
         2     5       7    7    0    5
         3     8       7    4    3    0
 29      1     1       6    8    6    0
         2     9       5    8    5    0
         3    10       3    7    0    4
 30      1     4       4    5    9    0
         2     4       4    5    0    8
         3     9       4    4    0    8
 31      1     1       7    8    8    0
         2     4       4    8    6    0
         3     6       3    7    0   10
 32      1     0       0    0    0    0
************************************************************************
RESOURCEAVAILABILITIES:
  R 1  R 2  N 1  N 2
   44   43   52   44
************************************************************************
